c 
p cnf 10 40
2 -6 -9 -1 0
-1 0
7 10 5 1 0
10 2 -1 -4 0
-3 8 -10 0
-6 -1 -9 -4 0
-8 -3 -6 -5 -10 0
6 0
-10 1 -8 2 0
-8 -7 -3 -4 0
-4 0
5 4 8 -7 -10 0
8 6 0
-8 4 9 -2 0
8 6 7 0
5 9 0
10 -4 2 -9 8 0
-8 0
2 -4 -9 7 0
6 0
-9 0
-5 0
4 2 7 3 6 0
-7 4 0
-4 1 3 -5 0
-9 0
2 -5 4 10 1 0
-8 7 0
9 -5 3 7 0
2 7 0
5 2 -7 6 0
6 -4 5 -8 10 0
-8 3 -9 0
9 -10 -6 7 0
-9 -6 0
7 0
10 8 0
4 6 -1 -3 0
8 -4 -7 1 3 0
7 0
